;Number of predicates (nodes) = 22
;Number of variables = 6
;Number of clauses = 31
;
(set-logic HORN)
(declare-fun assign_376_34_10 (Int Int Int Int Int Int Int Int Int Int) Bool)
(declare-fun assert_367_33_10 (Int Int Int Int Int Int Int Int Int Int) Bool)
(declare-fun assert_349_32_3 (Int Int Int Int Int Int Int Int Int Int) Bool)
(declare-fun assert_331_31_10 (Int Int Int Int Int Int Int Int Int Int) Bool)
(declare-fun assert_298_30_10 (Int Int Int Int Int Int Int Int Int Int) Bool)
(declare-fun while_379_29_8 (Int Int Int Int Int Int Int Int Int Int) Bool)
(declare-fun assign_257_28_1 (Int Int Int Int Int Int Int Int Int Int) Bool)
(declare-fun assign_248_25_5 (Int Int Int Int Int Int Int Int Int Int) Bool)
(declare-fun arrayassign_239_24_5 (Int Int Int Int Int Int Int Int Int Int) Bool)
(declare-fun arrayassign_225_23_5 (Int Int Int Int Int Int Int Int Int Int) Bool)
(declare-fun assert_211_22_12 (Int Int Int Int Int Int Int Int Int Int) Bool)
(declare-fun assert_178_21_12 (Int Int Int Int Int Int Int Int Int Int) Bool)
(declare-fun while_251_20_1 (Int Int Int Int Int Int Int Int Int Int) Bool)
(declare-fun assign_137_19_1 (Int Int Int Int Int Int Int Int Int Int) Bool)
(declare-fun assign_128_17_5 (Int Int Int Int Int Int Int Int Int Int) Bool)
(declare-fun arrayassign_119_16_12 (Int Int Int Int Int Int Int Int Int Int) Bool)
(declare-fun arrayassign_105_15_5 (Int Int Int Int Int Int Int Int Int Int) Bool)
(declare-fun while_131_13_1 (Int Int Int Int Int Int Int Int Int Int) Bool)
(declare-fun assign_83_12_8 (Int Int Int Int Int Int Int Int Int Int) Bool)
(declare-fun assign_77_11_1 (Int Int Int Int Int Int Int Int Int Int) Bool)
(declare-fun end (Int Int Int Int Int Int Int Int Int Int) Bool)
(declare-fun start (Int Int Int Int Int Int Int Int Int Int) Bool)
(assert (forall ((N Int) (a_copy_ind Int) (a_copy_val Int) (a_ind Int) (a_val Int) (b_copy_ind Int) (b_copy_val Int) (b_ind Int) (b_val Int) (i Int)) (start b_copy_ind b_copy_val a_copy_ind a_copy_val b_ind b_val a_ind a_val N i)))
(assert (forall ((N Int) (a_copy_ind Int) (a_copy_val Int) (a_ind Int) (a_val Int) (b_copy_ind Int) (b_copy_val Int) (b_ind Int) (b_val Int) (i Int)) (=> (start b_copy_ind b_copy_val a_copy_ind a_copy_val b_ind b_val a_ind a_val N i) (assign_77_11_1 b_copy_ind b_copy_val a_copy_ind a_copy_val b_ind b_val a_ind a_val N i))))
;
;(assign)  N := Support.random()
(assert (forall ((N Int) (a_copy_ind Int) (a_copy_val Int) (a_ind Int) (a_val Int) (b_copy_ind Int) (b_copy_val Int) (b_ind Int) (b_val Int) (i Int) (rnd Int)) (=> (assign_77_11_1 b_copy_ind b_copy_val a_copy_ind a_copy_val b_ind b_val a_ind a_val N i) (assign_83_12_8 b_copy_ind b_copy_val a_copy_ind a_copy_val b_ind b_val a_ind a_val rnd i))))
;
;(assign)  i := 0
(assert (forall ((N Int) (a_copy_ind Int) (a_copy_val Int) (a_ind Int) (a_val Int) (b_copy_ind Int) (b_copy_val Int) (b_ind Int) (b_val Int) (i Int)) (=> (assign_83_12_8 b_copy_ind b_copy_val a_copy_ind a_copy_val b_ind b_val a_ind a_val N i) (while_131_13_1 b_copy_ind b_copy_val a_copy_ind a_copy_val b_ind b_val a_ind a_val N 0))))
;
;(while)   while((i<N))
(assert (forall ((N Int) (a_copy_ind Int) (a_copy_val Int) (a_ind Int) (a_val Int) (b_copy_ind Int) (b_copy_val Int) (b_ind Int) (b_val Int) (i Int)) (=> (and (while_131_13_1 b_copy_ind b_copy_val a_copy_ind a_copy_val b_ind b_val a_ind a_val N i) (< i N)) (arrayassign_105_15_5 b_copy_ind b_copy_val a_copy_ind a_copy_val b_ind b_val a_ind a_val N i))))
(assert (forall ((N Int) (a_copy_ind Int) (a_copy_val Int) (a_ind Int) (a_val Int) (b_copy_ind Int) (b_copy_val Int) (b_ind Int) (b_val Int) (i Int)) (=> (and (while_131_13_1 b_copy_ind b_copy_val a_copy_ind a_copy_val b_ind b_val a_ind a_val N i) (not (< i N))) (assign_137_19_1 b_copy_ind b_copy_val a_copy_ind a_copy_val b_ind b_val a_ind a_val N i))))
;
;(aassign) a_copy[i] := a[i]
(assert (forall ((N Int) (a_copy_ind Int) (a_copy_val Int) (a_ind Int) (a_val Int) (b_copy_ind Int) (b_copy_val Int) (b_ind Int) (b_val Int) (i Int) (tmp_select_a Int) (tmp_store_a_copy_ind Int) (tmp_store_a_copy_val Int)) (=> (and (arrayassign_105_15_5 b_copy_ind b_copy_val a_copy_ind a_copy_val b_ind b_val a_ind a_val N i) (or (and (= a_ind i) (= tmp_select_a a_val)) (and (< i a_ind) (arrayassign_105_15_5 b_copy_ind b_copy_val a_copy_ind a_copy_val b_ind b_val i tmp_select_a N i)) (and (< a_ind i) (arrayassign_105_15_5 b_copy_ind b_copy_val a_copy_ind a_copy_val b_ind b_val i tmp_select_a N i))) (= tmp_store_a_copy_ind a_copy_ind) (or (and (= a_copy_ind i) (= tmp_store_a_copy_val tmp_select_a)) (and (not (= a_copy_ind i)) (= tmp_store_a_copy_val a_copy_val)))) (arrayassign_119_16_12 b_copy_ind b_copy_val tmp_store_a_copy_ind tmp_store_a_copy_val b_ind b_val a_ind a_val N i))))
;
;(aassign) b_copy[i] := b[i]
(assert (forall ((N Int) (a_copy_ind Int) (a_copy_val Int) (a_ind Int) (a_val Int) (b_copy_ind Int) (b_copy_val Int) (b_ind Int) (b_val Int) (i Int) (tmp_select_b Int) (tmp_store_b_copy_ind Int) (tmp_store_b_copy_val Int)) (=> (and (arrayassign_119_16_12 b_copy_ind b_copy_val a_copy_ind a_copy_val b_ind b_val a_ind a_val N i) (or (and (= b_ind i) (= tmp_select_b b_val)) (and (< i b_ind) (arrayassign_119_16_12 b_copy_ind b_copy_val a_copy_ind a_copy_val i tmp_select_b a_ind a_val N i)) (and (< b_ind i) (arrayassign_119_16_12 b_copy_ind b_copy_val a_copy_ind a_copy_val i tmp_select_b a_ind a_val N i))) (= tmp_store_b_copy_ind b_copy_ind) (or (and (= b_copy_ind i) (= tmp_store_b_copy_val tmp_select_b)) (and (not (= b_copy_ind i)) (= tmp_store_b_copy_val b_copy_val)))) (assign_128_17_5 tmp_store_b_copy_ind tmp_store_b_copy_val a_copy_ind a_copy_val b_ind b_val a_ind a_val N i))))
;
;(assign)  i := (i+1)
(assert (forall ((N Int) (a_copy_ind Int) (a_copy_val Int) (a_ind Int) (a_val Int) (b_copy_ind Int) (b_copy_val Int) (b_ind Int) (b_val Int) (i Int)) (=> (assign_128_17_5 b_copy_ind b_copy_val a_copy_ind a_copy_val b_ind b_val a_ind a_val N i) (while_131_13_1 b_copy_ind b_copy_val a_copy_ind a_copy_val b_ind b_val a_ind a_val N (+ i 1)))))
;
;(assign)  i := 0
(assert (forall ((N Int) (a_copy_ind Int) (a_copy_val Int) (a_ind Int) (a_val Int) (b_copy_ind Int) (b_copy_val Int) (b_ind Int) (b_val Int) (i Int)) (=> (assign_137_19_1 b_copy_ind b_copy_val a_copy_ind a_copy_val b_ind b_val a_ind a_val N i) (while_251_20_1 b_copy_ind b_copy_val a_copy_ind a_copy_val b_ind b_val a_ind a_val N 0))))
;
;(while)   while((i<N))
(assert (forall ((N Int) (a_copy_ind Int) (a_copy_val Int) (a_ind Int) (a_val Int) (b_copy_ind Int) (b_copy_val Int) (b_ind Int) (b_val Int) (i Int)) (=> (and (while_251_20_1 b_copy_ind b_copy_val a_copy_ind a_copy_val b_ind b_val a_ind a_val N i) (< i N)) (assert_178_21_12 b_copy_ind b_copy_val a_copy_ind a_copy_val b_ind b_val a_ind a_val N i))))
(assert (forall ((N Int) (a_copy_ind Int) (a_copy_val Int) (a_ind Int) (a_val Int) (b_copy_ind Int) (b_copy_val Int) (b_ind Int) (b_val Int) (i Int)) (=> (and (while_251_20_1 b_copy_ind b_copy_val a_copy_ind a_copy_val b_ind b_val a_ind a_val N i) (not (< i N))) (assign_257_28_1 b_copy_ind b_copy_val a_copy_ind a_copy_val b_ind b_val a_ind a_val N i))))
;
;(assert)  (((0<=k)&&(k<i))=>(a_copy[k]==b[k]))
(assert (forall ((N Int) (a_copy_ind Int) (a_copy_val Int) (a_ind Int) (a_val Int) (b_copy_ind Int) (b_copy_val Int) (b_ind Int) (b_val Int) (i Int) (k Int) (tmp_select_a_copy Int) (tmp_select_b Int)) (=> (and (assert_178_21_12 b_copy_ind b_copy_val a_copy_ind a_copy_val b_ind b_val a_ind a_val N i) (or (and (= a_copy_ind k) (= tmp_select_a_copy a_copy_val)) (and (< k a_copy_ind) (assert_178_21_12 b_copy_ind b_copy_val k tmp_select_a_copy b_ind b_val a_ind a_val N i)) (and (< a_copy_ind k) (assert_178_21_12 b_copy_ind b_copy_val k tmp_select_a_copy b_ind b_val a_ind a_val N i))) (or (and (= b_ind k) (= tmp_select_b b_val)) (and (< k b_ind) (assert_178_21_12 b_copy_ind b_copy_val a_copy_ind a_copy_val k tmp_select_b a_ind a_val N i) (or (and (= a_copy_ind k) (= tmp_select_a_copy a_copy_val)) (and (< k a_copy_ind) (assert_178_21_12 b_copy_ind b_copy_val k tmp_select_a_copy k tmp_select_b a_ind a_val N i)) (and (< a_copy_ind k) (assert_178_21_12 b_copy_ind b_copy_val k tmp_select_a_copy k tmp_select_b a_ind a_val N i)))) (and (< b_ind k) (assert_178_21_12 b_copy_ind b_copy_val a_copy_ind a_copy_val k tmp_select_b a_ind a_val N i) (or (and (= a_copy_ind k) (= tmp_select_a_copy a_copy_val)) (and (< k a_copy_ind) (assert_178_21_12 b_copy_ind b_copy_val k tmp_select_a_copy k tmp_select_b a_ind a_val N i)) (and (< a_copy_ind k) (assert_178_21_12 b_copy_ind b_copy_val k tmp_select_a_copy k tmp_select_b a_ind a_val N i)))))) (=> (and (<= 0 k) (< k i)) (= tmp_select_a_copy tmp_select_b)))))
(assert (forall ((N Int) (a_copy_ind Int) (a_copy_val Int) (a_ind Int) (a_val Int) (b_copy_ind Int) (b_copy_val Int) (b_ind Int) (b_val Int) (i Int)) (=> (assert_178_21_12 b_copy_ind b_copy_val a_copy_ind a_copy_val b_ind b_val a_ind a_val N i) (assert_211_22_12 b_copy_ind b_copy_val a_copy_ind a_copy_val b_ind b_val a_ind a_val N i))))
;
;(assert)  (((0<=k)&&(k<i))=>(b_copy[k]==a[k]))
(assert (forall ((N Int) (a_copy_ind Int) (a_copy_val Int) (a_ind Int) (a_val Int) (b_copy_ind Int) (b_copy_val Int) (b_ind Int) (b_val Int) (i Int) (k Int) (tmp_select_a Int) (tmp_select_b_copy Int)) (=> (and (assert_211_22_12 b_copy_ind b_copy_val a_copy_ind a_copy_val b_ind b_val a_ind a_val N i) (or (and (= b_copy_ind k) (= tmp_select_b_copy b_copy_val)) (and (< k b_copy_ind) (assert_211_22_12 k tmp_select_b_copy a_copy_ind a_copy_val b_ind b_val a_ind a_val N i)) (and (< b_copy_ind k) (assert_211_22_12 k tmp_select_b_copy a_copy_ind a_copy_val b_ind b_val a_ind a_val N i))) (or (and (= a_ind k) (= tmp_select_a a_val)) (and (< k a_ind) (assert_211_22_12 b_copy_ind b_copy_val a_copy_ind a_copy_val b_ind b_val k tmp_select_a N i) (or (and (= b_copy_ind k) (= tmp_select_b_copy b_copy_val)) (and (< k b_copy_ind) (assert_211_22_12 k tmp_select_b_copy a_copy_ind a_copy_val b_ind b_val k tmp_select_a N i)) (and (< b_copy_ind k) (assert_211_22_12 k tmp_select_b_copy a_copy_ind a_copy_val b_ind b_val k tmp_select_a N i)))) (and (< a_ind k) (assert_211_22_12 b_copy_ind b_copy_val a_copy_ind a_copy_val b_ind b_val k tmp_select_a N i) (or (and (= b_copy_ind k) (= tmp_select_b_copy b_copy_val)) (and (< k b_copy_ind) (assert_211_22_12 k tmp_select_b_copy a_copy_ind a_copy_val b_ind b_val k tmp_select_a N i)) (and (< b_copy_ind k) (assert_211_22_12 k tmp_select_b_copy a_copy_ind a_copy_val b_ind b_val k tmp_select_a N i)))))) (=> (and (<= 0 k) (< k i)) (= tmp_select_b_copy tmp_select_a)))))
(assert (forall ((N Int) (a_copy_ind Int) (a_copy_val Int) (a_ind Int) (a_val Int) (b_copy_ind Int) (b_copy_val Int) (b_ind Int) (b_val Int) (i Int)) (=> (assert_211_22_12 b_copy_ind b_copy_val a_copy_ind a_copy_val b_ind b_val a_ind a_val N i) (arrayassign_225_23_5 b_copy_ind b_copy_val a_copy_ind a_copy_val b_ind b_val a_ind a_val N i))))
;
;(aassign) a_copy[i] := b[i]
(assert (forall ((N Int) (a_copy_ind Int) (a_copy_val Int) (a_ind Int) (a_val Int) (b_copy_ind Int) (b_copy_val Int) (b_ind Int) (b_val Int) (i Int) (tmp_select_b Int) (tmp_store_a_copy_ind Int) (tmp_store_a_copy_val Int)) (=> (and (arrayassign_225_23_5 b_copy_ind b_copy_val a_copy_ind a_copy_val b_ind b_val a_ind a_val N i) (or (and (= b_ind i) (= tmp_select_b b_val)) (and (< i b_ind) (arrayassign_225_23_5 b_copy_ind b_copy_val a_copy_ind a_copy_val i tmp_select_b a_ind a_val N i)) (and (< b_ind i) (arrayassign_225_23_5 b_copy_ind b_copy_val a_copy_ind a_copy_val i tmp_select_b a_ind a_val N i))) (= tmp_store_a_copy_ind a_copy_ind) (or (and (= a_copy_ind i) (= tmp_store_a_copy_val tmp_select_b)) (and (not (= a_copy_ind i)) (= tmp_store_a_copy_val a_copy_val)))) (arrayassign_239_24_5 b_copy_ind b_copy_val tmp_store_a_copy_ind tmp_store_a_copy_val b_ind b_val a_ind a_val N i))))
;
;(aassign) b_copy[i] := a[i]
(assert (forall ((N Int) (a_copy_ind Int) (a_copy_val Int) (a_ind Int) (a_val Int) (b_copy_ind Int) (b_copy_val Int) (b_ind Int) (b_val Int) (i Int) (tmp_select_a Int) (tmp_store_b_copy_ind Int) (tmp_store_b_copy_val Int)) (=> (and (arrayassign_239_24_5 b_copy_ind b_copy_val a_copy_ind a_copy_val b_ind b_val a_ind a_val N i) (or (and (= a_ind i) (= tmp_select_a a_val)) (and (< i a_ind) (arrayassign_239_24_5 b_copy_ind b_copy_val a_copy_ind a_copy_val b_ind b_val i tmp_select_a N i)) (and (< a_ind i) (arrayassign_239_24_5 b_copy_ind b_copy_val a_copy_ind a_copy_val b_ind b_val i tmp_select_a N i))) (= tmp_store_b_copy_ind b_copy_ind) (or (and (= b_copy_ind i) (= tmp_store_b_copy_val tmp_select_a)) (and (not (= b_copy_ind i)) (= tmp_store_b_copy_val b_copy_val)))) (assign_248_25_5 tmp_store_b_copy_ind tmp_store_b_copy_val a_copy_ind a_copy_val b_ind b_val a_ind a_val N i))))
;
;(assign)  i := (i+1)
(assert (forall ((N Int) (a_copy_ind Int) (a_copy_val Int) (a_ind Int) (a_val Int) (b_copy_ind Int) (b_copy_val Int) (b_ind Int) (b_val Int) (i Int)) (=> (assign_248_25_5 b_copy_ind b_copy_val a_copy_ind a_copy_val b_ind b_val a_ind a_val N i) (while_251_20_1 b_copy_ind b_copy_val a_copy_ind a_copy_val b_ind b_val a_ind a_val N (+ i 1)))))
;
;(assign)  i := 0
(assert (forall ((N Int) (a_copy_ind Int) (a_copy_val Int) (a_ind Int) (a_val Int) (b_copy_ind Int) (b_copy_val Int) (b_ind Int) (b_val Int) (i Int)) (=> (assign_257_28_1 b_copy_ind b_copy_val a_copy_ind a_copy_val b_ind b_val a_ind a_val N i) (while_379_29_8 b_copy_ind b_copy_val a_copy_ind a_copy_val b_ind b_val a_ind a_val N 0))))
;
;(while)   while((i<N))
(assert (forall ((N Int) (a_copy_ind Int) (a_copy_val Int) (a_ind Int) (a_val Int) (b_copy_ind Int) (b_copy_val Int) (b_ind Int) (b_val Int) (i Int)) (=> (and (while_379_29_8 b_copy_ind b_copy_val a_copy_ind a_copy_val b_ind b_val a_ind a_val N i) (< i N)) (assert_298_30_10 b_copy_ind b_copy_val a_copy_ind a_copy_val b_ind b_val a_ind a_val N i))))
(assert (forall ((N Int) (a_copy_ind Int) (a_copy_val Int) (a_ind Int) (a_val Int) (b_copy_ind Int) (b_copy_val Int) (b_ind Int) (b_val Int) (i Int)) (=> (and (while_379_29_8 b_copy_ind b_copy_val a_copy_ind a_copy_val b_ind b_val a_ind a_val N i) (not (< i N))) (end b_copy_ind b_copy_val a_copy_ind a_copy_val b_ind b_val a_ind a_val N i))))
;
;(assert)  (((0<=k)&&(k<N))=>(a_copy[k]==b[k]))
(assert (forall ((N Int) (a_copy_ind Int) (a_copy_val Int) (a_ind Int) (a_val Int) (b_copy_ind Int) (b_copy_val Int) (b_ind Int) (b_val Int) (i Int) (k Int) (tmp_select_a_copy Int) (tmp_select_b Int)) (=> (and (assert_298_30_10 b_copy_ind b_copy_val a_copy_ind a_copy_val b_ind b_val a_ind a_val N i) (or (and (= a_copy_ind k) (= tmp_select_a_copy a_copy_val)) (and (< k a_copy_ind) (assert_298_30_10 b_copy_ind b_copy_val k tmp_select_a_copy b_ind b_val a_ind a_val N i)) (and (< a_copy_ind k) (assert_298_30_10 b_copy_ind b_copy_val k tmp_select_a_copy b_ind b_val a_ind a_val N i))) (or (and (= b_ind k) (= tmp_select_b b_val)) (and (< k b_ind) (assert_298_30_10 b_copy_ind b_copy_val a_copy_ind a_copy_val k tmp_select_b a_ind a_val N i) (or (and (= a_copy_ind k) (= tmp_select_a_copy a_copy_val)) (and (< k a_copy_ind) (assert_298_30_10 b_copy_ind b_copy_val k tmp_select_a_copy k tmp_select_b a_ind a_val N i)) (and (< a_copy_ind k) (assert_298_30_10 b_copy_ind b_copy_val k tmp_select_a_copy k tmp_select_b a_ind a_val N i)))) (and (< b_ind k) (assert_298_30_10 b_copy_ind b_copy_val a_copy_ind a_copy_val k tmp_select_b a_ind a_val N i) (or (and (= a_copy_ind k) (= tmp_select_a_copy a_copy_val)) (and (< k a_copy_ind) (assert_298_30_10 b_copy_ind b_copy_val k tmp_select_a_copy k tmp_select_b a_ind a_val N i)) (and (< a_copy_ind k) (assert_298_30_10 b_copy_ind b_copy_val k tmp_select_a_copy k tmp_select_b a_ind a_val N i)))))) (=> (and (<= 0 k) (< k N)) (= tmp_select_a_copy tmp_select_b)))))
(assert (forall ((N Int) (a_copy_ind Int) (a_copy_val Int) (a_ind Int) (a_val Int) (b_copy_ind Int) (b_copy_val Int) (b_ind Int) (b_val Int) (i Int)) (=> (assert_298_30_10 b_copy_ind b_copy_val a_copy_ind a_copy_val b_ind b_val a_ind a_val N i) (assert_331_31_10 b_copy_ind b_copy_val a_copy_ind a_copy_val b_ind b_val a_ind a_val N i))))
;
;(assert)  (((0<=k)&&(k<N))=>(b_copy[k]==a[k]))
(assert (forall ((N Int) (a_copy_ind Int) (a_copy_val Int) (a_ind Int) (a_val Int) (b_copy_ind Int) (b_copy_val Int) (b_ind Int) (b_val Int) (i Int) (k Int) (tmp_select_a Int) (tmp_select_b_copy Int)) (=> (and (assert_331_31_10 b_copy_ind b_copy_val a_copy_ind a_copy_val b_ind b_val a_ind a_val N i) (or (and (= b_copy_ind k) (= tmp_select_b_copy b_copy_val)) (and (< k b_copy_ind) (assert_331_31_10 k tmp_select_b_copy a_copy_ind a_copy_val b_ind b_val a_ind a_val N i)) (and (< b_copy_ind k) (assert_331_31_10 k tmp_select_b_copy a_copy_ind a_copy_val b_ind b_val a_ind a_val N i))) (or (and (= a_ind k) (= tmp_select_a a_val)) (and (< k a_ind) (assert_331_31_10 b_copy_ind b_copy_val a_copy_ind a_copy_val b_ind b_val k tmp_select_a N i) (or (and (= b_copy_ind k) (= tmp_select_b_copy b_copy_val)) (and (< k b_copy_ind) (assert_331_31_10 k tmp_select_b_copy a_copy_ind a_copy_val b_ind b_val k tmp_select_a N i)) (and (< b_copy_ind k) (assert_331_31_10 k tmp_select_b_copy a_copy_ind a_copy_val b_ind b_val k tmp_select_a N i)))) (and (< a_ind k) (assert_331_31_10 b_copy_ind b_copy_val a_copy_ind a_copy_val b_ind b_val k tmp_select_a N i) (or (and (= b_copy_ind k) (= tmp_select_b_copy b_copy_val)) (and (< k b_copy_ind) (assert_331_31_10 k tmp_select_b_copy a_copy_ind a_copy_val b_ind b_val k tmp_select_a N i)) (and (< b_copy_ind k) (assert_331_31_10 k tmp_select_b_copy a_copy_ind a_copy_val b_ind b_val k tmp_select_a N i)))))) (=> (and (<= 0 k) (< k N)) (= tmp_select_b_copy tmp_select_a)))))
(assert (forall ((N Int) (a_copy_ind Int) (a_copy_val Int) (a_ind Int) (a_val Int) (b_copy_ind Int) (b_copy_val Int) (b_ind Int) (b_val Int) (i Int)) (=> (assert_331_31_10 b_copy_ind b_copy_val a_copy_ind a_copy_val b_ind b_val a_ind a_val N i) (assert_349_32_3 b_copy_ind b_copy_val a_copy_ind a_copy_val b_ind b_val a_ind a_val N i))))
;
;(assert)  (a[i]==b_copy[i])
(assert (forall ((N Int) (a_copy_ind Int) (a_copy_val Int) (a_ind Int) (a_val Int) (b_copy_ind Int) (b_copy_val Int) (b_ind Int) (b_val Int) (i Int) (tmp_select_a Int) (tmp_select_b_copy Int)) (=> (and (assert_349_32_3 b_copy_ind b_copy_val a_copy_ind a_copy_val b_ind b_val a_ind a_val N i) (or (and (= a_ind i) (= tmp_select_a a_val)) (and (< i a_ind) (assert_349_32_3 b_copy_ind b_copy_val a_copy_ind a_copy_val b_ind b_val i tmp_select_a N i)) (and (< a_ind i) (assert_349_32_3 b_copy_ind b_copy_val a_copy_ind a_copy_val b_ind b_val i tmp_select_a N i))) (or (and (= b_copy_ind i) (= tmp_select_b_copy b_copy_val)) (and (< i b_copy_ind) (assert_349_32_3 i tmp_select_b_copy a_copy_ind a_copy_val b_ind b_val a_ind a_val N i) (or (and (= a_ind i) (= tmp_select_a a_val)) (and (< i a_ind) (assert_349_32_3 i tmp_select_b_copy a_copy_ind a_copy_val b_ind b_val i tmp_select_a N i)) (and (< a_ind i) (assert_349_32_3 i tmp_select_b_copy a_copy_ind a_copy_val b_ind b_val i tmp_select_a N i)))) (and (< b_copy_ind i) (assert_349_32_3 i tmp_select_b_copy a_copy_ind a_copy_val b_ind b_val a_ind a_val N i) (or (and (= a_ind i) (= tmp_select_a a_val)) (and (< i a_ind) (assert_349_32_3 i tmp_select_b_copy a_copy_ind a_copy_val b_ind b_val i tmp_select_a N i)) (and (< a_ind i) (assert_349_32_3 i tmp_select_b_copy a_copy_ind a_copy_val b_ind b_val i tmp_select_a N i)))))) (= tmp_select_a tmp_select_b_copy))))
(assert (forall ((N Int) (a_copy_ind Int) (a_copy_val Int) (a_ind Int) (a_val Int) (b_copy_ind Int) (b_copy_val Int) (b_ind Int) (b_val Int) (i Int)) (=> (assert_349_32_3 b_copy_ind b_copy_val a_copy_ind a_copy_val b_ind b_val a_ind a_val N i) (assert_367_33_10 b_copy_ind b_copy_val a_copy_ind a_copy_val b_ind b_val a_ind a_val N i))))
;
;(assert)  (b[i]==a_copy[i])
(assert (forall ((N Int) (a_copy_ind Int) (a_copy_val Int) (a_ind Int) (a_val Int) (b_copy_ind Int) (b_copy_val Int) (b_ind Int) (b_val Int) (i Int) (tmp_select_a_copy Int) (tmp_select_b Int)) (=> (and (assert_367_33_10 b_copy_ind b_copy_val a_copy_ind a_copy_val b_ind b_val a_ind a_val N i) (or (and (= b_ind i) (= tmp_select_b b_val)) (and (< i b_ind) (assert_367_33_10 b_copy_ind b_copy_val a_copy_ind a_copy_val i tmp_select_b a_ind a_val N i)) (and (< b_ind i) (assert_367_33_10 b_copy_ind b_copy_val a_copy_ind a_copy_val i tmp_select_b a_ind a_val N i))) (or (and (= a_copy_ind i) (= tmp_select_a_copy a_copy_val)) (and (< i a_copy_ind) (assert_367_33_10 b_copy_ind b_copy_val i tmp_select_a_copy b_ind b_val a_ind a_val N i) (or (and (= b_ind i) (= tmp_select_b b_val)) (and (< i b_ind) (assert_367_33_10 b_copy_ind b_copy_val i tmp_select_a_copy i tmp_select_b a_ind a_val N i)) (and (< b_ind i) (assert_367_33_10 b_copy_ind b_copy_val i tmp_select_a_copy i tmp_select_b a_ind a_val N i)))) (and (< a_copy_ind i) (assert_367_33_10 b_copy_ind b_copy_val i tmp_select_a_copy b_ind b_val a_ind a_val N i) (or (and (= b_ind i) (= tmp_select_b b_val)) (and (< i b_ind) (assert_367_33_10 b_copy_ind b_copy_val i tmp_select_a_copy i tmp_select_b a_ind a_val N i)) (and (< b_ind i) (assert_367_33_10 b_copy_ind b_copy_val i tmp_select_a_copy i tmp_select_b a_ind a_val N i)))))) (= tmp_select_b tmp_select_a_copy))))
(assert (forall ((N Int) (a_copy_ind Int) (a_copy_val Int) (a_ind Int) (a_val Int) (b_copy_ind Int) (b_copy_val Int) (b_ind Int) (b_val Int) (i Int)) (=> (assert_367_33_10 b_copy_ind b_copy_val a_copy_ind a_copy_val b_ind b_val a_ind a_val N i) (assign_376_34_10 b_copy_ind b_copy_val a_copy_ind a_copy_val b_ind b_val a_ind a_val N i))))
;
;(assign)  i := (i+1)
(assert (forall ((N Int) (a_copy_ind Int) (a_copy_val Int) (a_ind Int) (a_val Int) (b_copy_ind Int) (b_copy_val Int) (b_ind Int) (b_val Int) (i Int)) (=> (assign_376_34_10 b_copy_ind b_copy_val a_copy_ind a_copy_val b_ind b_val a_ind a_val N i) (while_379_29_8 b_copy_ind b_copy_val a_copy_ind a_copy_val b_ind b_val a_ind a_val N (+ i 1)))))
(check-sat)
